solution status: optimal solution found
objective value:                                    1
$_52_y                                            -25 	(obj:0)
$_52_z                                            -22 	(obj:0)
$_41_y                                            -24 	(obj:0)
$_41_z                                            -24 	(obj:0)
$_70_y                                            -25 	(obj:0)
$_70_z                                            -23 	(obj:0)
$_53_y                                            -24 	(obj:0)
$_53_z                                            -22 	(obj:0)
$_62_y                                            -25 	(obj:0)
$_62_z                                            -21 	(obj:0)
$_69_y                                            -25 	(obj:0)
$_69_z                                            -24 	(obj:0)
$_63_y                                            -24 	(obj:0)
$_63_z                                            -21 	(obj:0)
$_38_y                                            -24 	(obj:0)
$_38_z                                            -25 	(obj:0)
$_72_y                                            -23 	(obj:0)
$_72_z                                            -22 	(obj:0)
$_37_y                                            -25 	(obj:0)
$_37_z                                            -25 	(obj:0)
$_42_y                                            -24 	(obj:0)
$_42_z                                            -23 	(obj:0)
x41                                                 1 	(obj:1)
